num_wann  = 6

!!! Disentanglement parameters !!!
dis_win_min      = 4.92
dis_win_max      = 6.5
dis_froz_min     = 5.1
dis_froz_max     = 6.5
#dis_mix_ratio    = 1.0

!!! Iterations &c. !!!
 iprint                = 1
 num_iter              = 20000
 num_print_cycles      =   100
# conv_window           = 3
conv_tol              = 1e-11
 dis_num_iter          = 20000
#dis_conv_window       = 3
#dis_conv_tol          = 1e-11
!restart               = default | wannierise | plot | transport

!fermi_energy  =  2.94028489

!!! Post-processing options !!!
 write_proj             = .true.
 write_xyz              = .true.
 translate_home_cell    = .false.
 hr_plot                = .true.
!fermi_surface_plot     = .true.

!!! Band structure
 bands_plot             = .true.
 bands_num_points       = 50
!bands_plot_format      = gnuplot xmgrace
!bands_plot_project     = 1-3
!bands_plot_mode        = s-k | cut [Slater-Koster | truncate Hamiltonian]
begin kpoint_path
  L  0.5000  0.5000  0.500   G  0.0000  0.0000  0.000
  G  0.0000  0.0000  0.000   X  0.5000  0.0000  0.500
  X  0.5000  0.0000  0.500   W  0.5000  0.2500  0.750
  W  0.5000  0.2500  0.750   L  0.5000  0.5000  0.500
  L  0.5000  0.5000  0.500   K  0.3750  0.7500  0.375
  K  0.3750  0.7500  0.375   G  0.0000  0.0000  0.000
end kpoint_path

!!! Dummy `projections' block for guiding centers !!!
guiding_centres = .true.
begin projections
f=0.00,0.00,0.00:dxy
f=0.00,0.00,0.00:dyz
f=0.00,0.00,0.00:dxz
f=0.25,0.25,0.25:dxy
f=0.25,0.25,0.25:dyz
f=0.25,0.25,0.25:dxz
end projections

begin unit_cell_cart
     0.0000000     4.0383940     4.0383940
     4.0383940     0.0000000     4.0383940
     4.0383940     4.0383940     0.0000000
end unit_cell_cart

begin atoms_cart
Cu       0.0000000     0.0000000     0.0000000
Cu       2.0191970     2.0191970     2.0191970
Al       5.0479925     3.0287955     3.0287955
Al       3.0287955     5.0479925     3.0287955
Al       3.0287955     3.0287955     5.0479925
Al       5.0479925     5.0479925     5.0479925
O        5.1626127     5.1626127     6.9525696
O        5.1626127     6.9525696     5.1626127
O        6.9525696     5.1626127     5.1626127
O        6.9525696     6.9525696     6.9525696
O        3.1434162     4.9333730     4.9333730
O        4.9333730     3.1434162     4.9333730
O        4.9333730     4.9333730     3.1434162
O        3.1434162     3.1434162     3.1434162
end atoms_cart

mp_grid =     6     6     6

begin kpoints
      0.000000000000      0.000000000000      0.000000000000
      0.166666666667      0.000000000000      0.000000000000
      0.333333333333      0.000000000000      0.000000000000
      0.500000000000      0.000000000000      0.000000000000
      0.000000000000      0.166666666667      0.000000000000
      0.166666666667      0.166666666667      0.000000000000
      0.333333333333      0.166666666667      0.000000000000
      0.500000000000      0.166666666667      0.000000000000
     -0.333333333333      0.166666666667      0.000000000000
     -0.166666666667      0.166666666667      0.000000000000
      0.000000000000      0.333333333333      0.000000000000
      0.166666666667      0.333333333333      0.000000000000
      0.333333333333      0.333333333333      0.000000000000
      0.500000000000      0.333333333333      0.000000000000
     -0.333333333333      0.333333333333      0.000000000000
     -0.166666666667      0.333333333333      0.000000000000
      0.000000000000      0.500000000000      0.000000000000
      0.166666666667      0.500000000000      0.000000000000
      0.333333333333      0.500000000000      0.000000000000
      0.500000000000      0.500000000000      0.000000000000
      0.000000000000      0.000000000000      0.166666666667
      0.166666666667      0.000000000000      0.166666666667
      0.333333333333      0.000000000000      0.166666666667
      0.500000000000      0.000000000000      0.166666666667
     -0.333333333333      0.000000000000      0.166666666667
     -0.166666666667      0.000000000000      0.166666666667
      0.000000000000      0.166666666667      0.166666666667
      0.166666666667      0.166666666667      0.166666666667
      0.333333333333      0.166666666667      0.166666666667
      0.500000000000      0.166666666667      0.166666666667
     -0.333333333333      0.166666666667      0.166666666667
     -0.166666666667      0.166666666667      0.166666666667
      0.000000000000      0.333333333333      0.166666666667
      0.166666666667      0.333333333333      0.166666666667
      0.333333333333      0.333333333333      0.166666666667
      0.500000000000      0.333333333333      0.166666666667
     -0.333333333333      0.333333333333      0.166666666667
     -0.166666666667      0.333333333333      0.166666666667
      0.000000000000      0.500000000000      0.166666666667
      0.166666666667      0.500000000000      0.166666666667
      0.333333333333      0.500000000000      0.166666666667
      0.500000000000      0.500000000000      0.166666666667
     -0.333333333333      0.500000000000      0.166666666667
     -0.166666666667      0.500000000000      0.166666666667
      0.000000000000     -0.333333333333      0.166666666667
      0.166666666667     -0.333333333333      0.166666666667
      0.333333333333     -0.333333333333      0.166666666667
      0.500000000000     -0.333333333333      0.166666666667
     -0.333333333333     -0.333333333333      0.166666666667
     -0.166666666667     -0.333333333333      0.166666666667
      0.000000000000     -0.166666666667      0.166666666667
      0.166666666667     -0.166666666667      0.166666666667
      0.333333333333     -0.166666666667      0.166666666667
      0.500000000000     -0.166666666667      0.166666666667
     -0.333333333333     -0.166666666667      0.166666666667
     -0.166666666667     -0.166666666667      0.166666666667
      0.000000000000      0.000000000000      0.333333333333
      0.166666666667      0.000000000000      0.333333333333
      0.333333333333      0.000000000000      0.333333333333
      0.500000000000      0.000000000000      0.333333333333
     -0.333333333333      0.000000000000      0.333333333333
     -0.166666666667      0.000000000000      0.333333333333
      0.000000000000      0.166666666667      0.333333333333
      0.166666666667      0.166666666667      0.333333333333
      0.333333333333      0.166666666667      0.333333333333
      0.500000000000      0.166666666667      0.333333333333
     -0.333333333333      0.166666666667      0.333333333333
     -0.166666666667      0.166666666667      0.333333333333
      0.000000000000      0.333333333333      0.333333333333
      0.166666666667      0.333333333333      0.333333333333
      0.333333333333      0.333333333333      0.333333333333
      0.500000000000      0.333333333333      0.333333333333
     -0.333333333333      0.333333333333      0.333333333333
     -0.166666666667      0.333333333333      0.333333333333
      0.000000000000      0.500000000000      0.333333333333
      0.166666666667      0.500000000000      0.333333333333
      0.333333333333      0.500000000000      0.333333333333
      0.500000000000      0.500000000000      0.333333333333
     -0.333333333333      0.500000000000      0.333333333333
     -0.166666666667      0.500000000000      0.333333333333
      0.000000000000     -0.333333333333      0.333333333333
      0.166666666667     -0.333333333333      0.333333333333
      0.333333333333     -0.333333333333      0.333333333333
      0.500000000000     -0.333333333333      0.333333333333
     -0.333333333333     -0.333333333333      0.333333333333
     -0.166666666667     -0.333333333333      0.333333333333
      0.000000000000     -0.166666666667      0.333333333333
      0.166666666667     -0.166666666667      0.333333333333
      0.333333333333     -0.166666666667      0.333333333333
      0.500000000000     -0.166666666667      0.333333333333
     -0.333333333333     -0.166666666667      0.333333333333
     -0.166666666667     -0.166666666667      0.333333333333
      0.000000000000      0.000000000000      0.500000000000
      0.166666666667      0.000000000000      0.500000000000
      0.333333333333      0.000000000000      0.500000000000
      0.500000000000      0.000000000000      0.500000000000
      0.000000000000      0.166666666667      0.500000000000
      0.166666666667      0.166666666667      0.500000000000
      0.333333333333      0.166666666667      0.500000000000
      0.500000000000      0.166666666667      0.500000000000
     -0.333333333333      0.166666666667      0.500000000000
     -0.166666666667      0.166666666667      0.500000000000
      0.000000000000      0.333333333333      0.500000000000
      0.166666666667      0.333333333333      0.500000000000
      0.333333333333      0.333333333333      0.500000000000
      0.500000000000      0.333333333333      0.500000000000
     -0.333333333333      0.333333333333      0.500000000000
     -0.166666666667      0.333333333333      0.500000000000
      0.000000000000      0.500000000000      0.500000000000
      0.166666666667      0.500000000000      0.500000000000
      0.333333333333      0.500000000000      0.500000000000
      0.500000000000      0.500000000000      0.500000000000
     -0.166666666667      0.000000000000      0.000000000000
     -0.333333333333      0.000000000000      0.000000000000
      0.000000000000     -0.166666666667      0.000000000000
     -0.166666666667     -0.166666666667      0.000000000000
     -0.333333333333     -0.166666666667      0.000000000000
     -0.500000000000     -0.166666666667      0.000000000000
      0.333333333333     -0.166666666667      0.000000000000
      0.166666666667     -0.166666666667      0.000000000000
      0.000000000000     -0.333333333333      0.000000000000
     -0.166666666667     -0.333333333333      0.000000000000
     -0.333333333333     -0.333333333333      0.000000000000
     -0.500000000000     -0.333333333333      0.000000000000
      0.333333333333     -0.333333333333      0.000000000000
      0.166666666667     -0.333333333333      0.000000000000
     -0.166666666667     -0.500000000000      0.000000000000
     -0.333333333333     -0.500000000000      0.000000000000
      0.000000000000      0.000000000000     -0.166666666667
     -0.166666666667      0.000000000000     -0.166666666667
     -0.333333333333      0.000000000000     -0.166666666667
     -0.500000000000      0.000000000000     -0.166666666667
      0.333333333333      0.000000000000     -0.166666666667
      0.166666666667      0.000000000000     -0.166666666667
      0.000000000000     -0.166666666667     -0.166666666667
     -0.166666666667     -0.166666666667     -0.166666666667
     -0.333333333333     -0.166666666667     -0.166666666667
     -0.500000000000     -0.166666666667     -0.166666666667
      0.333333333333     -0.166666666667     -0.166666666667
      0.166666666667     -0.166666666667     -0.166666666667
      0.000000000000     -0.333333333333     -0.166666666667
     -0.166666666667     -0.333333333333     -0.166666666667
     -0.333333333333     -0.333333333333     -0.166666666667
     -0.500000000000     -0.333333333333     -0.166666666667
      0.333333333333     -0.333333333333     -0.166666666667
      0.166666666667     -0.333333333333     -0.166666666667
      0.000000000000     -0.500000000000     -0.166666666667
     -0.166666666667     -0.500000000000     -0.166666666667
     -0.333333333333     -0.500000000000     -0.166666666667
     -0.500000000000     -0.500000000000     -0.166666666667
      0.333333333333     -0.500000000000     -0.166666666667
      0.166666666667     -0.500000000000     -0.166666666667
      0.000000000000      0.333333333333     -0.166666666667
     -0.166666666667      0.333333333333     -0.166666666667
     -0.333333333333      0.333333333333     -0.166666666667
     -0.500000000000      0.333333333333     -0.166666666667
      0.333333333333      0.333333333333     -0.166666666667
      0.166666666667      0.333333333333     -0.166666666667
      0.000000000000      0.166666666667     -0.166666666667
     -0.166666666667      0.166666666667     -0.166666666667
     -0.333333333333      0.166666666667     -0.166666666667
     -0.500000000000      0.166666666667     -0.166666666667
      0.333333333333      0.166666666667     -0.166666666667
      0.166666666667      0.166666666667     -0.166666666667
      0.000000000000      0.000000000000     -0.333333333333
     -0.166666666667      0.000000000000     -0.333333333333
     -0.333333333333      0.000000000000     -0.333333333333
     -0.500000000000      0.000000000000     -0.333333333333
      0.333333333333      0.000000000000     -0.333333333333
      0.166666666667      0.000000000000     -0.333333333333
      0.000000000000     -0.166666666667     -0.333333333333
     -0.166666666667     -0.166666666667     -0.333333333333
     -0.333333333333     -0.166666666667     -0.333333333333
     -0.500000000000     -0.166666666667     -0.333333333333
      0.333333333333     -0.166666666667     -0.333333333333
      0.166666666667     -0.166666666667     -0.333333333333
      0.000000000000     -0.333333333333     -0.333333333333
     -0.166666666667     -0.333333333333     -0.333333333333
     -0.333333333333     -0.333333333333     -0.333333333333
     -0.500000000000     -0.333333333333     -0.333333333333
      0.333333333333     -0.333333333333     -0.333333333333
      0.166666666667     -0.333333333333     -0.333333333333
      0.000000000000     -0.500000000000     -0.333333333333
     -0.166666666667     -0.500000000000     -0.333333333333
     -0.333333333333     -0.500000000000     -0.333333333333
     -0.500000000000     -0.500000000000     -0.333333333333
      0.333333333333     -0.500000000000     -0.333333333333
      0.166666666667     -0.500000000000     -0.333333333333
      0.000000000000      0.333333333333     -0.333333333333
     -0.166666666667      0.333333333333     -0.333333333333
     -0.333333333333      0.333333333333     -0.333333333333
     -0.500000000000      0.333333333333     -0.333333333333
      0.333333333333      0.333333333333     -0.333333333333
      0.166666666667      0.333333333333     -0.333333333333
      0.000000000000      0.166666666667     -0.333333333333
     -0.166666666667      0.166666666667     -0.333333333333
     -0.333333333333      0.166666666667     -0.333333333333
     -0.500000000000      0.166666666667     -0.333333333333
      0.333333333333      0.166666666667     -0.333333333333
      0.166666666667      0.166666666667     -0.333333333333
     -0.166666666667      0.000000000000     -0.500000000000
     -0.333333333333      0.000000000000     -0.500000000000
      0.000000000000     -0.166666666667     -0.500000000000
     -0.166666666667     -0.166666666667     -0.500000000000
     -0.333333333333     -0.166666666667     -0.500000000000
     -0.500000000000     -0.166666666667     -0.500000000000
      0.333333333333     -0.166666666667     -0.500000000000
      0.166666666667     -0.166666666667     -0.500000000000
      0.000000000000     -0.333333333333     -0.500000000000
     -0.166666666667     -0.333333333333     -0.500000000000
     -0.333333333333     -0.333333333333     -0.500000000000
     -0.500000000000     -0.333333333333     -0.500000000000
      0.333333333333     -0.333333333333     -0.500000000000
      0.166666666667     -0.333333333333     -0.500000000000
     -0.166666666667     -0.500000000000     -0.500000000000
     -0.333333333333     -0.500000000000     -0.500000000000
end kpoints
