#num_bands = 96
num_wann          =  3

num_iter          = 1000


hr_plot = true
#write_hr = true
bands_plot        = true

dis_win_min       = 2.8
dis_win_max       = 6.7
dis_froz_min      = 3.1
dis_froz_max      = 6.1
dis_num_iter      = 1000

fermi_energy = 5.7545

#translate_home_cell = .true.
write_xyz = .true.
guiding_centres = .true.

begin kpoint_path
G 0.0000     0.0000     0.0000    X 0.500000   0.0000     0.0000
X 0.500000   0.000000   0.000000  M 0.500000   0.5000     0.0000
M 0.500000   0.5000     0.0000    G 0.0000     0.0000     0.0000    
G 0.0000     0.0000     0.0000    R 0.5000     0.5000     0.5000    
end kpoint_path


begin projections
f= 0.5, 0.5, 0.5:dxy
f= 0.5, 0.5, 0.5:dyz
f= 0.5, 0.5, 0.5:dxz
end projections

begin unit_cell_cart
     4.0257300     0.0000000     0.0000000
     0.0000000     4.0257300     0.0000000
     0.0000000     0.0000000     4.0257300
end unit_cell_cart

begin atoms_cart
Ba       0.0000000     0.0000000     0.0000000
Os       2.0128650     2.0128650     2.0128650
O        2.0128650     0.0000000     2.0128650
O        2.0128650     2.0128650     0.0000000
O        0.0000000     2.0128650     2.0128650
end atoms_cart

mp_grid =    24    24    24

begin kpoints
      0.000000000000      0.000000000000      0.000000000000
      0.041666666667      0.000000000000      0.000000000000
      0.083333333333      0.000000000000      0.000000000000
      0.125000000000      0.000000000000      0.000000000000
      0.166666666667      0.000000000000      0.000000000000
      0.208333333333      0.000000000000      0.000000000000
      0.250000000000      0.000000000000      0.000000000000
      0.291666666667      0.000000000000      0.000000000000
      0.333333333333      0.000000000000      0.000000000000
      0.375000000000      0.000000000000      0.000000000000
      0.416666666667      0.000000000000      0.000000000000
      0.458333333333      0.000000000000      0.000000000000
      0.500000000000      0.000000000000      0.000000000000
      0.041666666667      0.041666666667      0.000000000000
      0.083333333333      0.041666666667      0.000000000000
      0.125000000000      0.041666666667      0.000000000000
      0.166666666667      0.041666666667      0.000000000000
      0.208333333333      0.041666666667      0.000000000000
      0.250000000000      0.041666666667      0.000000000000
      0.291666666667      0.041666666667      0.000000000000
      0.333333333333      0.041666666667      0.000000000000
      0.375000000000      0.041666666667      0.000000000000
      0.416666666667      0.041666666667      0.000000000000
      0.458333333333      0.041666666667      0.000000000000
      0.500000000000      0.041666666667      0.000000000000
      0.083333333333      0.083333333333      0.000000000000
      0.125000000000      0.083333333333      0.000000000000
      0.166666666667      0.083333333333      0.000000000000
      0.208333333333      0.083333333333      0.000000000000
      0.250000000000      0.083333333333      0.000000000000
      0.291666666667      0.083333333333      0.000000000000
      0.333333333333      0.083333333333      0.000000000000
      0.375000000000      0.083333333333      0.000000000000
      0.416666666667      0.083333333333      0.000000000000
      0.458333333333      0.083333333333      0.000000000000
      0.500000000000      0.083333333333      0.000000000000
      0.125000000000      0.125000000000      0.000000000000
      0.166666666667      0.125000000000      0.000000000000
      0.208333333333      0.125000000000      0.000000000000
      0.250000000000      0.125000000000      0.000000000000
      0.291666666667      0.125000000000      0.000000000000
      0.333333333333      0.125000000000      0.000000000000
      0.375000000000      0.125000000000      0.000000000000
      0.416666666667      0.125000000000      0.000000000000
      0.458333333333      0.125000000000      0.000000000000
      0.500000000000      0.125000000000      0.000000000000
      0.166666666667      0.166666666667      0.000000000000
      0.208333333333      0.166666666667      0.000000000000
      0.250000000000      0.166666666667      0.000000000000
      0.291666666667      0.166666666667      0.000000000000
      0.333333333333      0.166666666667      0.000000000000
      0.375000000000      0.166666666667      0.000000000000
      0.416666666667      0.166666666667      0.000000000000
      0.458333333333      0.166666666667      0.000000000000
      0.500000000000      0.166666666667      0.000000000000
      0.208333333333      0.208333333333      0.000000000000
      0.250000000000      0.208333333333      0.000000000000
      0.291666666667      0.208333333333      0.000000000000
      0.333333333333      0.208333333333      0.000000000000
      0.375000000000      0.208333333333      0.000000000000
      0.416666666667      0.208333333333      0.000000000000
      0.458333333333      0.208333333333      0.000000000000
      0.500000000000      0.208333333333      0.000000000000
      0.250000000000      0.250000000000      0.000000000000
      0.291666666667      0.250000000000      0.000000000000
      0.333333333333      0.250000000000      0.000000000000
      0.375000000000      0.250000000000      0.000000000000
      0.416666666667      0.250000000000      0.000000000000
      0.458333333333      0.250000000000      0.000000000000
      0.500000000000      0.250000000000      0.000000000000
      0.291666666667      0.291666666667      0.000000000000
      0.333333333333      0.291666666667      0.000000000000
      0.375000000000      0.291666666667      0.000000000000
      0.416666666667      0.291666666667      0.000000000000
      0.458333333333      0.291666666667      0.000000000000
      0.500000000000      0.291666666667      0.000000000000
      0.333333333333      0.333333333333      0.000000000000
      0.375000000000      0.333333333333      0.000000000000
      0.416666666667      0.333333333333      0.000000000000
      0.458333333333      0.333333333333      0.000000000000
      0.500000000000      0.333333333333      0.000000000000
      0.375000000000      0.375000000000      0.000000000000
      0.416666666667      0.375000000000      0.000000000000
      0.458333333333      0.375000000000      0.000000000000
      0.500000000000      0.375000000000      0.000000000000
      0.416666666667      0.416666666667      0.000000000000
      0.458333333333      0.416666666667      0.000000000000
      0.500000000000      0.416666666667      0.000000000000
      0.458333333333      0.458333333333      0.000000000000
      0.500000000000      0.458333333333      0.000000000000
      0.500000000000      0.500000000000      0.000000000000
      0.041666666667      0.041666666667      0.041666666667
      0.083333333333      0.041666666667      0.041666666667
      0.125000000000      0.041666666667      0.041666666667
      0.166666666667      0.041666666667      0.041666666667
      0.208333333333      0.041666666667      0.041666666667
      0.250000000000      0.041666666667      0.041666666667
      0.291666666667      0.041666666667      0.041666666667
      0.333333333333      0.041666666667      0.041666666667
      0.375000000000      0.041666666667      0.041666666667
      0.416666666667      0.041666666667      0.041666666667
      0.458333333333      0.041666666667      0.041666666667
      0.500000000000      0.041666666667      0.041666666667
      0.083333333333      0.083333333333      0.041666666667
      0.125000000000      0.083333333333      0.041666666667
      0.166666666667      0.083333333333      0.041666666667
      0.208333333333      0.083333333333      0.041666666667
      0.250000000000      0.083333333333      0.041666666667
      0.291666666667      0.083333333333      0.041666666667
      0.333333333333      0.083333333333      0.041666666667
      0.375000000000      0.083333333333      0.041666666667
      0.416666666667      0.083333333333      0.041666666667
      0.458333333333      0.083333333333      0.041666666667
      0.500000000000      0.083333333333      0.041666666667
      0.125000000000      0.125000000000      0.041666666667
      0.166666666667      0.125000000000      0.041666666667
      0.208333333333      0.125000000000      0.041666666667
      0.250000000000      0.125000000000      0.041666666667
      0.291666666667      0.125000000000      0.041666666667
      0.333333333333      0.125000000000      0.041666666667
      0.375000000000      0.125000000000      0.041666666667
      0.416666666667      0.125000000000      0.041666666667
      0.458333333333      0.125000000000      0.041666666667
      0.500000000000      0.125000000000      0.041666666667
      0.166666666667      0.166666666667      0.041666666667
      0.208333333333      0.166666666667      0.041666666667
      0.250000000000      0.166666666667      0.041666666667
      0.291666666667      0.166666666667      0.041666666667
      0.333333333333      0.166666666667      0.041666666667
      0.375000000000      0.166666666667      0.041666666667
      0.416666666667      0.166666666667      0.041666666667
      0.458333333333      0.166666666667      0.041666666667
      0.500000000000      0.166666666667      0.041666666667
      0.208333333333      0.208333333333      0.041666666667
      0.250000000000      0.208333333333      0.041666666667
      0.291666666667      0.208333333333      0.041666666667
      0.333333333333      0.208333333333      0.041666666667
      0.375000000000      0.208333333333      0.041666666667
      0.416666666667      0.208333333333      0.041666666667
      0.458333333333      0.208333333333      0.041666666667
      0.500000000000      0.208333333333      0.041666666667
      0.250000000000      0.250000000000      0.041666666667
      0.291666666667      0.250000000000      0.041666666667
      0.333333333333      0.250000000000      0.041666666667
      0.375000000000      0.250000000000      0.041666666667
      0.416666666667      0.250000000000      0.041666666667
      0.458333333333      0.250000000000      0.041666666667
      0.500000000000      0.250000000000      0.041666666667
      0.291666666667      0.291666666667      0.041666666667
      0.333333333333      0.291666666667      0.041666666667
      0.375000000000      0.291666666667      0.041666666667
      0.416666666667      0.291666666667      0.041666666667
      0.458333333333      0.291666666667      0.041666666667
      0.500000000000      0.291666666667      0.041666666667
      0.333333333333      0.333333333333      0.041666666667
      0.375000000000      0.333333333333      0.041666666667
      0.416666666667      0.333333333333      0.041666666667
      0.458333333333      0.333333333333      0.041666666667
      0.500000000000      0.333333333333      0.041666666667
      0.375000000000      0.375000000000      0.041666666667
      0.416666666667      0.375000000000      0.041666666667
      0.458333333333      0.375000000000      0.041666666667
      0.500000000000      0.375000000000      0.041666666667
      0.416666666667      0.416666666667      0.041666666667
      0.458333333333      0.416666666667      0.041666666667
      0.500000000000      0.416666666667      0.041666666667
      0.458333333333      0.458333333333      0.041666666667
      0.500000000000      0.458333333333      0.041666666667
      0.500000000000      0.500000000000      0.041666666667
      0.083333333333      0.083333333333      0.083333333333
      0.125000000000      0.083333333333      0.083333333333
      0.166666666667      0.083333333333      0.083333333333
      0.208333333333      0.083333333333      0.083333333333
      0.250000000000      0.083333333333      0.083333333333
      0.291666666667      0.083333333333      0.083333333333
      0.333333333333      0.083333333333      0.083333333333
      0.375000000000      0.083333333333      0.083333333333
      0.416666666667      0.083333333333      0.083333333333
      0.458333333333      0.083333333333      0.083333333333
      0.500000000000      0.083333333333      0.083333333333
      0.125000000000      0.125000000000      0.083333333333
      0.166666666667      0.125000000000      0.083333333333
      0.208333333333      0.125000000000      0.083333333333
      0.250000000000      0.125000000000      0.083333333333
      0.291666666667      0.125000000000      0.083333333333
      0.333333333333      0.125000000000      0.083333333333
      0.375000000000      0.125000000000      0.083333333333
      0.416666666667      0.125000000000      0.083333333333
      0.458333333333      0.125000000000      0.083333333333
      0.500000000000      0.125000000000      0.083333333333
      0.166666666667      0.166666666667      0.083333333333
      0.208333333333      0.166666666667      0.083333333333
      0.250000000000      0.166666666667      0.083333333333
      0.291666666667      0.166666666667      0.083333333333
      0.333333333333      0.166666666667      0.083333333333
      0.375000000000      0.166666666667      0.083333333333
      0.416666666667      0.166666666667      0.083333333333
      0.458333333333      0.166666666667      0.083333333333
      0.500000000000      0.166666666667      0.083333333333
      0.208333333333      0.208333333333      0.083333333333
      0.250000000000      0.208333333333      0.083333333333
      0.291666666667      0.208333333333      0.083333333333
      0.333333333333      0.208333333333      0.083333333333
      0.375000000000      0.208333333333      0.083333333333
      0.416666666667      0.208333333333      0.083333333333
      0.458333333333      0.208333333333      0.083333333333
      0.500000000000      0.208333333333      0.083333333333
      0.250000000000      0.250000000000      0.083333333333
      0.291666666667      0.250000000000      0.083333333333
      0.333333333333      0.250000000000      0.083333333333
      0.375000000000      0.250000000000      0.083333333333
      0.416666666667      0.250000000000      0.083333333333
      0.458333333333      0.250000000000      0.083333333333
      0.500000000000      0.250000000000      0.083333333333
      0.291666666667      0.291666666667      0.083333333333
      0.333333333333      0.291666666667      0.083333333333
      0.375000000000      0.291666666667      0.083333333333
      0.416666666667      0.291666666667      0.083333333333
      0.458333333333      0.291666666667      0.083333333333
      0.500000000000      0.291666666667      0.083333333333
      0.333333333333      0.333333333333      0.083333333333
      0.375000000000      0.333333333333      0.083333333333
      0.416666666667      0.333333333333      0.083333333333
      0.458333333333      0.333333333333      0.083333333333
      0.500000000000      0.333333333333      0.083333333333
      0.375000000000      0.375000000000      0.083333333333
      0.416666666667      0.375000000000      0.083333333333
      0.458333333333      0.375000000000      0.083333333333
      0.500000000000      0.375000000000      0.083333333333
      0.416666666667      0.416666666667      0.083333333333
      0.458333333333      0.416666666667      0.083333333333
      0.500000000000      0.416666666667      0.083333333333
      0.458333333333      0.458333333333      0.083333333333
      0.500000000000      0.458333333333      0.083333333333
      0.500000000000      0.500000000000      0.083333333333
      0.125000000000      0.125000000000      0.125000000000
      0.166666666667      0.125000000000      0.125000000000
      0.208333333333      0.125000000000      0.125000000000
      0.250000000000      0.125000000000      0.125000000000
      0.291666666667      0.125000000000      0.125000000000
      0.333333333333      0.125000000000      0.125000000000
      0.375000000000      0.125000000000      0.125000000000
      0.416666666667      0.125000000000      0.125000000000
      0.458333333333      0.125000000000      0.125000000000
      0.500000000000      0.125000000000      0.125000000000
      0.166666666667      0.166666666667      0.125000000000
      0.208333333333      0.166666666667      0.125000000000
      0.250000000000      0.166666666667      0.125000000000
      0.291666666667      0.166666666667      0.125000000000
      0.333333333333      0.166666666667      0.125000000000
      0.375000000000      0.166666666667      0.125000000000
      0.416666666667      0.166666666667      0.125000000000
      0.458333333333      0.166666666667      0.125000000000
      0.500000000000      0.166666666667      0.125000000000
      0.208333333333      0.208333333333      0.125000000000
      0.250000000000      0.208333333333      0.125000000000
      0.291666666667      0.208333333333      0.125000000000
      0.333333333333      0.208333333333      0.125000000000
      0.375000000000      0.208333333333      0.125000000000
      0.416666666667      0.208333333333      0.125000000000
      0.458333333333      0.208333333333      0.125000000000
      0.500000000000      0.208333333333      0.125000000000
      0.250000000000      0.250000000000      0.125000000000
      0.291666666667      0.250000000000      0.125000000000
      0.333333333333      0.250000000000      0.125000000000
      0.375000000000      0.250000000000      0.125000000000
      0.416666666667      0.250000000000      0.125000000000
      0.458333333333      0.250000000000      0.125000000000
      0.500000000000      0.250000000000      0.125000000000
      0.291666666667      0.291666666667      0.125000000000
      0.333333333333      0.291666666667      0.125000000000
      0.375000000000      0.291666666667      0.125000000000
      0.416666666667      0.291666666667      0.125000000000
      0.458333333333      0.291666666667      0.125000000000
      0.500000000000      0.291666666667      0.125000000000
      0.333333333333      0.333333333333      0.125000000000
      0.375000000000      0.333333333333      0.125000000000
      0.416666666667      0.333333333333      0.125000000000
      0.458333333333      0.333333333333      0.125000000000
      0.500000000000      0.333333333333      0.125000000000
      0.375000000000      0.375000000000      0.125000000000
      0.416666666667      0.375000000000      0.125000000000
      0.458333333333      0.375000000000      0.125000000000
      0.500000000000      0.375000000000      0.125000000000
      0.416666666667      0.416666666667      0.125000000000
      0.458333333333      0.416666666667      0.125000000000
      0.500000000000      0.416666666667      0.125000000000
      0.458333333333      0.458333333333      0.125000000000
      0.500000000000      0.458333333333      0.125000000000
      0.500000000000      0.500000000000      0.125000000000
      0.166666666667      0.166666666667      0.166666666667
      0.208333333333      0.166666666667      0.166666666667
      0.250000000000      0.166666666667      0.166666666667
      0.291666666667      0.166666666667      0.166666666667
      0.333333333333      0.166666666667      0.166666666667
      0.375000000000      0.166666666667      0.166666666667
      0.416666666667      0.166666666667      0.166666666667
      0.458333333333      0.166666666667      0.166666666667
      0.500000000000      0.166666666667      0.166666666667
      0.208333333333      0.208333333333      0.166666666667
      0.250000000000      0.208333333333      0.166666666667
      0.291666666667      0.208333333333      0.166666666667
      0.333333333333      0.208333333333      0.166666666667
      0.375000000000      0.208333333333      0.166666666667
      0.416666666667      0.208333333333      0.166666666667
      0.458333333333      0.208333333333      0.166666666667
      0.500000000000      0.208333333333      0.166666666667
      0.250000000000      0.250000000000      0.166666666667
      0.291666666667      0.250000000000      0.166666666667
      0.333333333333      0.250000000000      0.166666666667
      0.375000000000      0.250000000000      0.166666666667
      0.416666666667      0.250000000000      0.166666666667
      0.458333333333      0.250000000000      0.166666666667
      0.500000000000      0.250000000000      0.166666666667
      0.291666666667      0.291666666667      0.166666666667
      0.333333333333      0.291666666667      0.166666666667
      0.375000000000      0.291666666667      0.166666666667
      0.416666666667      0.291666666667      0.166666666667
      0.458333333333      0.291666666667      0.166666666667
      0.500000000000      0.291666666667      0.166666666667
      0.333333333333      0.333333333333      0.166666666667
      0.375000000000      0.333333333333      0.166666666667
      0.416666666667      0.333333333333      0.166666666667
      0.458333333333      0.333333333333      0.166666666667
      0.500000000000      0.333333333333      0.166666666667
      0.375000000000      0.375000000000      0.166666666667
      0.416666666667      0.375000000000      0.166666666667
      0.458333333333      0.375000000000      0.166666666667
      0.500000000000      0.375000000000      0.166666666667
      0.416666666667      0.416666666667      0.166666666667
      0.458333333333      0.416666666667      0.166666666667
      0.500000000000      0.416666666667      0.166666666667
      0.458333333333      0.458333333333      0.166666666667
      0.500000000000      0.458333333333      0.166666666667
      0.500000000000      0.500000000000      0.166666666667
      0.208333333333      0.208333333333      0.208333333333
      0.250000000000      0.208333333333      0.208333333333
      0.291666666667      0.208333333333      0.208333333333
      0.333333333333      0.208333333333      0.208333333333
      0.375000000000      0.208333333333      0.208333333333
      0.416666666667      0.208333333333      0.208333333333
      0.458333333333      0.208333333333      0.208333333333
      0.500000000000      0.208333333333      0.208333333333
      0.250000000000      0.250000000000      0.208333333333
      0.291666666667      0.250000000000      0.208333333333
      0.333333333333      0.250000000000      0.208333333333
      0.375000000000      0.250000000000      0.208333333333
      0.416666666667      0.250000000000      0.208333333333
      0.458333333333      0.250000000000      0.208333333333
      0.500000000000      0.250000000000      0.208333333333
      0.291666666667      0.291666666667      0.208333333333
      0.333333333333      0.291666666667      0.208333333333
      0.375000000000      0.291666666667      0.208333333333
      0.416666666667      0.291666666667      0.208333333333
      0.458333333333      0.291666666667      0.208333333333
      0.500000000000      0.291666666667      0.208333333333
      0.333333333333      0.333333333333      0.208333333333
      0.375000000000      0.333333333333      0.208333333333
      0.416666666667      0.333333333333      0.208333333333
      0.458333333333      0.333333333333      0.208333333333
      0.500000000000      0.333333333333      0.208333333333
      0.375000000000      0.375000000000      0.208333333333
      0.416666666667      0.375000000000      0.208333333333
      0.458333333333      0.375000000000      0.208333333333
      0.500000000000      0.375000000000      0.208333333333
      0.416666666667      0.416666666667      0.208333333333
      0.458333333333      0.416666666667      0.208333333333
      0.500000000000      0.416666666667      0.208333333333
      0.458333333333      0.458333333333      0.208333333333
      0.500000000000      0.458333333333      0.208333333333
      0.500000000000      0.500000000000      0.208333333333
      0.250000000000      0.250000000000      0.250000000000
      0.291666666667      0.250000000000      0.250000000000
      0.333333333333      0.250000000000      0.250000000000
      0.375000000000      0.250000000000      0.250000000000
      0.416666666667      0.250000000000      0.250000000000
      0.458333333333      0.250000000000      0.250000000000
      0.500000000000      0.250000000000      0.250000000000
      0.291666666667      0.291666666667      0.250000000000
      0.333333333333      0.291666666667      0.250000000000
      0.375000000000      0.291666666667      0.250000000000
      0.416666666667      0.291666666667      0.250000000000
      0.458333333333      0.291666666667      0.250000000000
      0.500000000000      0.291666666667      0.250000000000
      0.333333333333      0.333333333333      0.250000000000
      0.375000000000      0.333333333333      0.250000000000
      0.416666666667      0.333333333333      0.250000000000
      0.458333333333      0.333333333333      0.250000000000
      0.500000000000      0.333333333333      0.250000000000
      0.375000000000      0.375000000000      0.250000000000
      0.416666666667      0.375000000000      0.250000000000
      0.458333333333      0.375000000000      0.250000000000
      0.500000000000      0.375000000000      0.250000000000
      0.416666666667      0.416666666667      0.250000000000
      0.458333333333      0.416666666667      0.250000000000
      0.500000000000      0.416666666667      0.250000000000
      0.458333333333      0.458333333333      0.250000000000
      0.500000000000      0.458333333333      0.250000000000
      0.500000000000      0.500000000000      0.250000000000
      0.291666666667      0.291666666667      0.291666666667
      0.333333333333      0.291666666667      0.291666666667
      0.375000000000      0.291666666667      0.291666666667
      0.416666666667      0.291666666667      0.291666666667
      0.458333333333      0.291666666667      0.291666666667
      0.500000000000      0.291666666667      0.291666666667
      0.333333333333      0.333333333333      0.291666666667
      0.375000000000      0.333333333333      0.291666666667
      0.416666666667      0.333333333333      0.291666666667
      0.458333333333      0.333333333333      0.291666666667
      0.500000000000      0.333333333333      0.291666666667
      0.375000000000      0.375000000000      0.291666666667
      0.416666666667      0.375000000000      0.291666666667
      0.458333333333      0.375000000000      0.291666666667
      0.500000000000      0.375000000000      0.291666666667
      0.416666666667      0.416666666667      0.291666666667
      0.458333333333      0.416666666667      0.291666666667
      0.500000000000      0.416666666667      0.291666666667
      0.458333333333      0.458333333333      0.291666666667
      0.500000000000      0.458333333333      0.291666666667
      0.500000000000      0.500000000000      0.291666666667
      0.333333333333      0.333333333333      0.333333333333
      0.375000000000      0.333333333333      0.333333333333
      0.416666666667      0.333333333333      0.333333333333
      0.458333333333      0.333333333333      0.333333333333
      0.500000000000      0.333333333333      0.333333333333
      0.375000000000      0.375000000000      0.333333333333
      0.416666666667      0.375000000000      0.333333333333
      0.458333333333      0.375000000000      0.333333333333
      0.500000000000      0.375000000000      0.333333333333
      0.416666666667      0.416666666667      0.333333333333
      0.458333333333      0.416666666667      0.333333333333
      0.500000000000      0.416666666667      0.333333333333
      0.458333333333      0.458333333333      0.333333333333
      0.500000000000      0.458333333333      0.333333333333
      0.500000000000      0.500000000000      0.333333333333
      0.375000000000      0.375000000000      0.375000000000
      0.416666666667      0.375000000000      0.375000000000
      0.458333333333      0.375000000000      0.375000000000
      0.500000000000      0.375000000000      0.375000000000
      0.416666666667      0.416666666667      0.375000000000
      0.458333333333      0.416666666667      0.375000000000
      0.500000000000      0.416666666667      0.375000000000
      0.458333333333      0.458333333333      0.375000000000
      0.500000000000      0.458333333333      0.375000000000
      0.500000000000      0.500000000000      0.375000000000
      0.416666666667      0.416666666667      0.416666666667
      0.458333333333      0.416666666667      0.416666666667
      0.500000000000      0.416666666667      0.416666666667
      0.458333333333      0.458333333333      0.416666666667
      0.500000000000      0.458333333333      0.416666666667
      0.500000000000      0.500000000000      0.416666666667
      0.458333333333      0.458333333333      0.458333333333
      0.500000000000      0.458333333333      0.458333333333
      0.500000000000      0.500000000000      0.458333333333
      0.500000000000      0.500000000000      0.500000000000
     -0.041666666667      0.000000000000      0.000000000000
      0.000000000000      0.041666666667      0.000000000000
      0.000000000000     -0.041666666667      0.000000000000
      0.000000000000      0.000000000000      0.041666666667
      0.000000000000      0.000000000000     -0.041666666667
     -0.083333333333      0.000000000000      0.000000000000
      0.000000000000      0.083333333333      0.000000000000
      0.000000000000     -0.083333333333      0.000000000000
      0.000000000000      0.000000000000      0.083333333333
      0.000000000000      0.000000000000     -0.083333333333
     -0.125000000000      0.000000000000      0.000000000000
      0.000000000000      0.125000000000      0.000000000000
      0.000000000000     -0.125000000000      0.000000000000
      0.000000000000      0.000000000000      0.125000000000
      0.000000000000      0.000000000000     -0.125000000000
     -0.166666666667      0.000000000000      0.000000000000